NAME : KROA149B
TYPE : PDTSP
DIMENSION : 149
EDGE_WEIGHT_TYPE : EUC_2D
NODE_COORD_SECTION
1 1380 939
2 2848 96
3 3510 1671
4 457 334
5 3888 666
6 984 965
7 2721 1482
8 1286 525
9 2716 1432
10 738 1325
11 1251 1832
12 2728 1698
13 3815 169
14 3683 1533
15 1247 1945
16 123 862
17 1234 1946
18 252 1240
19 611 673
20 2576 1676
21 928 1700
22 53 857
23 1807 1711
24 274 1420
25 2574 946
26 178 24
27 2678 1825
28 1795 962
29 3384 1498
30 3520 1079
31 1256 61
32 1424 1728
33 3913 192
34 3085 1528
35 2573 1969
36 463 1670
37 3875 598
38 298 1513
39 3479 821
40 2542 236
41 3955 1743
42 1323 280
43 3447 1830
44 2936 337
45 1621 1830
46 3373 1646
47 1393 1368
48 3874 1318
49 938 955
50 3022 474
51 2482 1183
52 3854 923
53 376 825
54 2519 135
55 2945 1622
56 953 268
57 2628 1479
58 2097 981
59 890 1846
60 2139 1806
61 2421 1007
62 2290 1810
63 1115 1052
64 2588 302
65 327 265
66 241 341
67 1917 687
68 2991 792
69 2573 599
70 19 674
71 3911 1673
72 872 1559
73 2863 558
74 929 1766
75 839 620
76 3893 102
77 2178 1619
78 3822 899
79 378 1048
80 1178 100
81 2599 901
82 3416 143
83 2961 1605
84 611 1384
85 3113 885
86 2597 1830
87 2586 1286
88 161 906
89 1429 134
90 742 1025
91 1625 1651
92 1187 706
93 1787 1009
94 22 987
95 3756 882
96 776 392
97 1724 1642
98 198 1810
99 3950 1558
100 3477 949
101 91 1732
102 3972 329
103 198 1632
104 1806 733
105 538 1023
106 3430 1088
107 2186 766
108 1513 1646
109 2143 1611
110 53 1657
111 3404 1307
112 1034 1344
113 2823 376
114 3104 1931
115 3232 324
116 2790 1457
117 374 9
118 741 146
119 3083 1938
120 3502 1067
121 1280 237
122 3326 1846
123 217 38
124 2503 1172
125 3527 41
126 739 1850
127 3548 1999
128 48 154
129 1419 872
130 1689 1223
131 3468 1404
132 1628 253
133 382 872
134 3029 1242
135 3646 1758
136 285 1029
137 1782 93
138 1067 371
139 2849 1214
140 920 1835
141 1741 712
142 876 220
143 2753 283
144 2609 1286
145 3941 258
146 3613 523
147 1754 559
148 2916 1724
149 2445 1820
PICKUP_AND_DELIVERY_SECTION
1 0 0 0 0 0 0
2 0 0 0 0 0 70
3 0 0 0 0 43 0
4 0 0 0 0 53 0
5 0 0 0 0 0 145
6 0 0 0 0 0 112
7 0 0 0 0 55 0
8 0 0 0 0 56 0
9 0 0 0 0 51 0
10 0 0 0 0 72 0
11 0 0 0 0 0 15
12 0 0 0 0 0 121
13 0 0 0 0 37 0
14 0 0 0 0 29 0
15 0 0 0 0 11 0
16 0 0 0 0 0 84
17 0 0 0 0 0 88
18 0 0 0 0 0 98
19 0 0 0 0 0 65
20 0 0 0 0 149 0
21 0 0 0 0 140 0
22 0 0 0 0 0 94
23 0 0 0 0 0 45
24 0 0 0 0 0 79
25 0 0 0 0 57 0
26 0 0 0 0 64 0
27 0 0 0 0 134 0
28 0 0 0 0 0 81
29 0 0 0 0 0 14
30 0 0 0 0 78 0
31 0 0 0 0 138 0
32 0 0 0 0 0 97
33 0 0 0 0 102 0
34 0 0 0 0 83 0
35 0 0 0 0 0 60
36 0 0 0 0 0 126
37 0 0 0 0 0 13
38 0 0 0 0 105 0
39 0 0 0 0 95 0
40 0 0 0 0 0 69
41 0 0 0 0 99 0
42 0 0 0 0 0 67
43 0 0 0 0 0 3
44 0 0 0 0 141 0
45 0 0 0 0 23 0
46 0 0 0 0 0 116
47 0 0 0 0 93 0
48 0 0 0 0 0 71
49 0 0 0 0 0 136
50 0 0 0 0 0 135
51 0 0 0 0 0 9
52 0 0 0 0 131 0
53 0 0 0 0 0 4
54 0 0 0 0 0 82
55 0 0 0 0 0 7
56 0 0 0 0 0 8
57 0 0 0 0 0 25
58 0 0 0 0 0 87
59 0 0 0 0 108 0
60 0 0 0 0 35 0
61 0 0 0 0 144 0
62 0 0 0 0 77 0
63 0 0 0 0 0 103
64 0 0 0 0 0 26
65 0 0 0 0 19 0
66 0 0 0 0 142 0
67 0 0 0 0 42 0
68 0 0 0 0 0 125
69 0 0 0 0 40 0
70 0 0 0 0 2 0
71 0 0 0 0 48 0
72 0 0 0 0 0 10
73 0 0 0 0 143 0
74 0 0 0 0 111 0
75 0 0 0 0 0 118
76 0 0 0 0 117 0
77 0 0 0 0 0 62
78 0 0 0 0 0 30
79 0 0 0 0 24 0
80 0 0 0 0 92 0
81 0 0 0 0 28 0
82 0 0 0 0 54 0
83 0 0 0 0 0 34
84 0 0 0 0 16 0
85 0 0 0 0 113 0
86 0 0 0 0 0 109
87 0 0 0 0 58 0
88 0 0 0 0 17 0
89 0 0 0 0 0 96
90 0 0 0 0 133 0
91 0 0 0 0 129 0
92 0 0 0 0 0 80
93 0 0 0 0 0 47
94 0 0 0 0 22 0
95 0 0 0 0 0 39
96 0 0 0 0 89 0
97 0 0 0 0 32 0
98 0 0 0 0 18 0
99 0 0 0 0 0 41
100 0 0 0 0 0 106
101 0 0 0 0 110 0
102 0 0 0 0 0 33
103 0 0 0 0 63 0
104 0 0 0 0 0 130
105 0 0 0 0 0 38
106 0 0 0 0 100 0
107 0 0 0 0 0 132
108 0 0 0 0 0 59
109 0 0 0 0 86 0
110 0 0 0 0 0 101
111 0 0 0 0 0 74
112 0 0 0 0 6 0
113 0 0 0 0 0 85
114 0 0 0 0 127 0
115 0 0 0 0 146 0
116 0 0 0 0 46 0
117 0 0 0 0 0 76
118 0 0 0 0 75 0
119 0 0 0 0 0 122
120 0 0 0 0 0 148
121 0 0 0 0 12 0
122 0 0 0 0 119 0
123 0 0 0 0 0 128
124 0 0 0 0 139 0
125 0 0 0 0 68 0
126 0 0 0 0 36 0
127 0 0 0 0 0 114
128 0 0 0 0 123 0
129 0 0 0 0 0 91
130 0 0 0 0 104 0
131 0 0 0 0 0 52
132 0 0 0 0 107 0
133 0 0 0 0 0 90
134 0 0 0 0 0 27
135 0 0 0 0 50 0
136 0 0 0 0 49 0
137 0 0 0 0 147 0
138 0 0 0 0 0 31
139 0 0 0 0 0 124
140 0 0 0 0 0 21
141 0 0 0 0 0 44
142 0 0 0 0 0 66
143 0 0 0 0 0 73
144 0 0 0 0 0 61
145 0 0 0 0 5 0
146 0 0 0 0 0 115
147 0 0 0 0 0 137
148 0 0 0 0 120 0
149 0 0 0 0 0 20
DEPOT_SECTION
1 
-1
EOF
